p cnf 50 25
31 25 -11 0
28 -41 -24 0
25 30 -7 0
-7 -47 -41 0
10 -42 19 0
37 -7 45 0
49 -20 -28 0
11 50 9 0
10 15 -18 0
-28 16 -14 0
46 47 25 0
-17 18 -39 0
29 4 -40 0
38 23 16 0
-34 -12 9 0
25 29 -13 0
30 -23 1 0
-19 26 -31 0
-32 16 43 0
-41 43 -16 0
-6 -26 -20 0
-16 50 -23 0
20 2 -18 0
-2 -29 -34 0
2 4 -37 0
